
  19    0


   0  10 2 3 4 5 7 14 15 16 17 18 
   1   3 13 12 10 
  10   3 11 9 8 
   6   3 10 9 8 
   1   1 6 
   6   1 8 
   6   1 8 
   2   1 19
   7   1 19
   2   1 19
   2   1 19
   6   1 19
   6   1 19
   5   1 19
  10   1 19
   6   1 19
   3   1 19
   8   1 19
   0   0 
